(declare-const Bracket_1 Real)
(declare-const Bracket_2 Real)
(declare-const Bracket_3 Real)
(declare-const FinalTaxes Real)
(declare-const Income Real)

(assert (= Bracket_1 (* 0.105 (ite (<= Income 53463) Income 53463))))
(assert (= Bracket_2 (* 0.125 (ite (> Income 152750) (- 152750 53463) (ite (> Income 53463) (- Income 53463) 0)))))
(assert (= Bracket_3 (* 0.145 (ite (> Income 152750) (- Income 152750) 0))))
(assert (= FinalTaxes (+ Bracket_1 Bracket_2 Bracket_3)))
